proyfinal/src/viki/013/andrea/andrea-localstore/experimentInOfficeAgust.take6/worker_1/c93caf21-28ff-466d-83ee-36d76b761ee1.als.cnf.out
Reading from standard input... Use '--help' for help.
============================[ Problem Statistics ]=============================
|                                                                             |
|  Number of variables:         87638                                         |
|  Number of clauses:          161767                                         |
|  Parse time:                   0.04 s                                       |
|                                                                             |
============================[ Search Statistics ]==============================
| Conflicts |          ORIGINAL         |          LEARNT          | Progress |
|           |    Vars  Clauses Literals |    Limit  Clauses Lit/Cl |          |
===============================================================================
|       100 |   63974   110796   276924 |    40625      100     12 | 27.002 % |
|       250 |   63974   110796   276924 |    44687      250     53 | 27.002 % |
|       475 |   63974   110796   276924 |    49156      475     83 | 27.002 % |
|       812 |   63974   110796   276924 |    54072      812     69 | 27.002 % |
|      1318 |   63974   110796   276924 |    59479     1318    157 | 27.002 % |
|      2077 |   63974   110796   276924 |    65427     2077    128 | 27.002 % |
|      3216 |   63974   110796   276924 |    71970     3216    109 | 27.002 % |
|      4924 |   63911   110604   276492 |    79167     4918    102 | 27.074 % |
|      7486 |   52772    77477   194916 |    87083     7410     98 | 39.784 % |
|     11330 |   52366    75602   190308 |    95792    11015     87 | 40.247 % |
|     17096 |   52078    74443   187547 |   105371    13874     82 | 40.576 % |
===============================================================================
restarts              : 84
conflicts             : 23188          (6768 /sec)
decisions             : 80328          (0.00 % random) (23447 /sec)
propagations          : 33620636       (9813631 /sec)
conflict literals     : 1750638        (44.07 % deleted)
Memory used           : 50.99 MB
CPU time              : 3.42591 s

INDETERMINATE
